226 185632
1 2 3 4 5 6 7 8 72 71 13 16 17 67 51 52 53 54 49 48 46 45 36 33 32 31 28 25 26 27 29 30 34 35 42 43 96 89 87 95 97 88 90 91 100 136 135 134 133 129 121 119 118 110 109 117 115 113 105 103 66 65 20 21 22 24 23 50 59 62 63 201 202 203 204 205 206 207 208 209 210 211 212 213 214 215 216 124 130 125 226 225 224 223 222 221 220 219 218 217 139 140 147 149 142 143 181 180 179 178 177 176 175 174 173 172 171 170 41 40 39 38 37 44 47 144 137 138 146 145 141 148 150 169 168 167 166 165 164 163 162 161 160 159 158 157 156 155 153 154 152 151 182 187 191 192 193 194 195 196 197 198 199 200 132 123 122 131 127 120 128 126 108 114 70 69 68 12 11 9 10 14 15 18 19 55 56 57 58 60 61 183 184 185 186 188 189 190 86 85 84 83 82 81 80 79 78 77 76 75 74 64 98 99 92 93 94 102 101 116 107 106 104 112 111 73 
